(set-info :smt-lib-version 2.6)
(set-logic QF_ALIA)
(set-info :notes "Adapted for Array Sum evaluation.
Base file: qlock.induction.9.smt2")
(set-info :source |
Unbounded version of the queue lock algorithm.
|)
(set-info :category "industrial")
(declare-fun x_0 () (Array Int Int))
(declare-fun x_1 () Int)
(declare-fun x_2 () Int)
(declare-fun x_3 () (Array Int Int))
(declare-fun x_4 () (Array Int Int))
(declare-fun x_5 () (Array Int Int))
(declare-fun x_6 () (Array Int Int))
(declare-fun x_7 () (Array Int Int))
(declare-fun x_8 () (Array Int Int))
(declare-fun x_9 () (Array Int Int))
(declare-fun x_10 () (Array Int Int))
(declare-fun x_11 () (Array Int Int))
(declare-fun x_12 () Int)
(declare-fun x_13 () Int)
(declare-fun x_14 () (Array Int Int))
(declare-fun x_15 () Int)
(declare-fun x_16 () Bool)
(declare-fun x_17 () Bool)
(declare-fun x_18 () Int)
(declare-fun x_19 () Int)
(declare-fun x_20 () Int)
(declare-fun x_21 () Int)
(declare-fun x_22 () Int)
(declare-fun x_23 () Int)
(declare-fun x_24 () Int)
(declare-fun x_25 () Int)
(declare-fun x_26 () Int)
(declare-fun x_27 () Int)
(declare-fun x_28 () Int)
(declare-fun x_29 () Int)
(declare-fun x_30 () (Array Int Int))
(declare-fun x_31 () Int)
(declare-fun x_32 () Bool)
(declare-fun x_33 () Int)
(declare-fun x_34 () Int)
(declare-fun x_35 () Int)
(declare-fun x_36 () Int)
(declare-fun x_37 () Int)
(declare-fun x_38 () Int)
(declare-fun x_39 () Int)
(declare-fun x_40 () Int)
(declare-fun x_41 () Int)
(declare-fun x_42 () Int)
(declare-fun x_43 () (Array Int Int))
(declare-fun x_44 () Int)
(declare-fun x_45 () Bool)
(declare-fun x_46 () Int)
(declare-fun x_47 () Int)
(declare-fun x_48 () Int)
(declare-fun x_49 () Int)
(declare-fun x_50 () Int)
(declare-fun x_51 () Int)
(declare-fun x_52 () Int)
(declare-fun x_53 () Int)
(declare-fun x_54 () Int)
(declare-fun x_55 () Int)
(declare-fun x_56 () (Array Int Int))
(declare-fun x_57 () Int)
(declare-fun x_58 () Bool)
(declare-fun x_59 () Int)
(declare-fun x_60 () Int)
(declare-fun x_61 () Int)
(declare-fun x_62 () Int)
(declare-fun x_63 () Int)
(declare-fun x_64 () Int)
(declare-fun x_65 () Int)
(declare-fun x_66 () Int)
(declare-fun x_67 () Int)
(declare-fun x_68 () Int)
(declare-fun x_69 () (Array Int Int))
(declare-fun x_70 () Int)
(declare-fun x_71 () Bool)
(declare-fun x_72 () Int)
(declare-fun x_73 () Int)
(declare-fun x_74 () Int)
(declare-fun x_75 () Int)
(declare-fun x_76 () Int)
(declare-fun x_77 () Int)
(declare-fun x_78 () Int)
(declare-fun x_79 () Int)
(declare-fun x_80 () Int)
(declare-fun x_81 () Int)
(declare-fun x_82 () (Array Int Int))
(declare-fun x_83 () Int)
(declare-fun x_84 () Bool)
(declare-fun x_85 () Int)
(declare-fun x_86 () Int)
(declare-fun x_87 () Int)
(declare-fun x_88 () Int)
(declare-fun x_89 () Int)
(declare-fun x_90 () Int)
(declare-fun x_91 () Int)
(declare-fun x_92 () Int)
(declare-fun x_93 () Int)
(declare-fun x_94 () Int)
(declare-fun x_95 () (Array Int Int))
(declare-fun x_96 () Int)
(declare-fun x_97 () Bool)
(declare-fun x_98 () Int)
(declare-fun x_99 () Int)
(declare-fun x_100 () Int)
(declare-fun x_101 () Int)
(declare-fun x_102 () Int)
(declare-fun x_103 () Int)
(declare-fun x_104 () Int)
(declare-fun x_105 () Int)
(declare-fun x_106 () Int)
(declare-fun x_107 () Int)
(declare-fun x_108 () (Array Int Int))
(declare-fun x_109 () Int)
(declare-fun x_110 () Bool)
(declare-fun x_111 () Int)
(declare-fun x_112 () Int)
(declare-fun x_113 () Int)
(declare-fun x_114 () Int)
(declare-fun x_115 () Int)
(declare-fun x_116 () Int)
(declare-fun x_117 () Int)
(declare-fun x_118 () Int)
(declare-fun x_119 () Int)
(declare-fun x_120 () Int)
(declare-fun x_121 () (Array Int Int))
(declare-fun x_122 () Int)
(declare-fun x_123 () Bool)
(declare-fun x_124 () Int)
(declare-fun x_125 () Int)
(declare-fun x_126 () Int)
(declare-fun x_127 () Int)
(declare-fun x_128 () Int)
(declare-fun x_129 () (Array Int Int))
(declare-fun x_130 () Int)
(declare-fun x_131 () Int)
(declare-fun x_132 () Int)
(declare-fun x_133 () Int)
(declare-fun x_134 () Int)
(declare-fun x_135 () Int)
(declare-fun x_136 () Int)
(declare-fun x_137 () Int)
(declare-fun x_138 () Int)
(declare-fun x_139 () Int)
(declare-fun x_140 () Int)
(declare-fun x_141 () Int)
(declare-fun x_142 () Int)
(declare-fun x_143 () Int)
(declare-fun x_144 () Int)
(declare-fun x_145 () Int)
(declare-fun x_146 () Int)
(declare-fun x_147 () Int)
(declare-fun x_148 () Int)
(declare-fun x_149 () Int)
(declare-fun x_150 () Int)
(declare-fun x_151 () Int)
(declare-fun x_152 () Int)
(declare-fun x_153 () Int)
(declare-fun x_154 () Int)
(declare-fun x_155 () Int)
(declare-fun x_156 () Int)
(declare-fun x_157 () Int)
(declare-fun x_158 () Int)
(declare-fun x_159 () Int)
(declare-fun x_160 () Int)
(declare-fun x_161 () Int)
(declare-fun x_162 () Int)
(declare-fun x_163 () Int)
(declare-fun x_164 () Int)
(declare-fun x_165 () Int)
(declare-fun x_166 () Int)
(declare-fun x_167 () Int)
(declare-fun x_168 () Int)
(declare-fun x_169 () Int)
(declare-fun x_170 () Int)
(declare-fun x_171 () Int)
(declare-fun x_172 () Int)
(declare-fun x_173 () Int)
(declare-fun x_174 () Int)
(declare-fun x_175 () Int)
(declare-fun x_176 () Int)
(declare-fun x_177 () Int)
(declare-fun x_178 () Int)
(declare-fun x_179 () Int)
(declare-fun x_180 () Int)
(declare-fun x_181 () Int)
(declare-fun x_182 () Int)
(declare-fun x_183 () Int)
(declare-fun x_184 () Int)
(declare-fun x_185 () Int)
(declare-fun x_186 () Int)
(declare-fun x_187 () Int)
(declare-fun x_188 () Int)
(declare-fun x_189 () Int)
(assert (let ((?v_43 (= x_14 x_11)) (?v_40 (= x_15 x_12)) (?v_41 (= x_16 x_17)) (?v_44 (= x_18 x_19)) (?v_42 (not (<= x_19 x_12))) (?v_38 (= x_30 x_14)) (?v_35 (= x_31 x_15)) (?v_36 (= x_32 x_16)) (?v_39 (= x_33 x_18)) (?v_37 (not (<= x_18 x_15))) (?v_33 (= x_43 x_30)) (?v_30 (= x_44 x_31)) (?v_31 (= x_45 x_32)) (?v_34 (= x_46 x_33)) (?v_32 (not (<= x_33 x_31))) (?v_28 (= x_56 x_43)) (?v_25 (= x_57 x_44)) (?v_26 (= x_58 x_45)) (?v_29 (= x_59 x_46)) (?v_27 (not (<= x_46 x_44))) (?v_23 (= x_69 x_56)) (?v_20 (= x_70 x_57)) (?v_21 (= x_71 x_58)) (?v_24 (= x_72 x_59)) (?v_22 (not (<= x_59 x_57))) (?v_18 (= x_82 x_69)) (?v_15 (= x_83 x_70)) (?v_16 (= x_84 x_71)) (?v_19 (= x_85 x_72)) (?v_17 (not (<= x_72 x_70))) (?v_13 (= x_95 x_82)) (?v_10 (= x_96 x_83)) (?v_11 (= x_97 x_84)) (?v_14 (= x_98 x_85)) (?v_12 (not (<= x_85 x_83))) (?v_8 (= x_108 x_95)) (?v_5 (= x_109 x_96)) (?v_6 (= x_110 x_97)) (?v_9 (= x_111 x_98)) (?v_7 (not (<= x_98 x_96))) (?v_3 (= x_121 x_108)) (?v_0 (= x_122 x_109)) (?v_1 (= x_123 x_110)) (?v_4 (= x_124 x_111)) (?v_2 (not (<= x_111 x_109)))) (and (and (and (and (and (and (and (and (and (and (and (and (and (and (and (and (and (and (and (and (and (and (and (and (and (and (and (and (and (and (and (and (and (and (and (and (and (and (and (and (and (and (and (and (and (and (and (and (and (and (and (and (and (and (and (and (and (and (and (and (and (and (and (and (and (and (and (and (and (and (and (and (and (and (and (and (and (and (and (and (and (and (and (and (and (and (and (and (and (and (and (and (and (and (not (= x_2 x_1)) (= x_134 (select x_10 x_1))) (= x_135 (select x_10 x_2))) (or (not (= x_134 3)) (not (= x_135 3)))) (= x_136 (select x_9 x_1))) (= x_137 (select x_9 x_2))) (or (not (= x_136 3)) (not (= x_137 3)))) (= x_138 (select x_8 x_1))) (= x_139 (select x_8 x_2))) (or (not (= x_138 3)) (not (= x_139 3)))) (= x_140 (select x_7 x_1))) (= x_141 (select x_7 x_2))) (or (not (= x_140 3)) (not (= x_141 3)))) (= x_142 (select x_6 x_1))) (= x_143 (select x_6 x_2))) (or (not (= x_142 3)) (not (= x_143 3)))) (= x_144 (select x_5 x_1))) (= x_145 (select x_5 x_2))) (or (not (= x_144 3)) (not (= x_145 3)))) (= x_146 (select x_4 x_1))) (= x_147 (select x_4 x_2))) (or (not (= x_146 3)) (not (= x_147 3)))) (= x_148 (select x_3 x_1))) (= x_149 (select x_3 x_2))) (or (not (= x_148 3)) (not (= x_149 3)))) (= x_150 (select x_0 x_1))) (= x_151 (select x_0 x_2))) (or (not (= x_150 3)) (not (= x_151 3)))) (= x_152 (select x_11 x_12))) (= x_13 x_152)) (= x_153 (select x_14 x_15))) (= x_29 x_153)) (= x_154 (select x_30 x_31))) (= x_42 x_154)) (= x_155 (select x_43 x_44))) (= x_55 x_155)) (= x_156 (select x_56 x_57))) (= x_68 x_156)) (= x_157 (select x_69 x_70))) (= x_81 x_157)) (= x_158 (select x_82 x_83))) (= x_94 x_158)) (= x_159 (select x_95 x_96))) (= x_107 x_159)) (= x_160 (select x_108 x_109))) (= x_120 x_160)) (= x_125 (+ x_112 1))) (= x_161 (select x_10 x_127))) (= x_162 (select x_10 x_130))) (= x_163 (select x_10 x_132))) (or (or (or (and (and (and (and (and (and (and (= x_126 0) (= x_124 (+ x_111 1))) ?v_0) ?v_1) (= x_128 x_127)) (= x_161 1)) (= x_129 (store x_10 x_127 2))) (= x_121 (store x_108 x_111 x_127))) (and (and (and (and (and (and (and (and (and (= x_126 1) ?v_2) ?v_0) ?v_1) ?v_3) ?v_4) (= x_131 x_130)) (= x_162 2)) (= x_120 x_130)) (= x_129 (store x_10 x_130 3)))) (and (and (and (and (and (and (and (and (and (= x_126 2) ?v_2) (= x_122 (+ x_109 1))) ?v_1) ?v_3) ?v_4) (= x_133 x_132)) (= x_163 3)) (or (not (<= x_112 12)) (= x_120 x_132))) (= x_129 (store x_10 x_132 1)))) (and (and (and (and (and (= x_126 3) ?v_3) ?v_0) ?v_1) (= x_129 x_10)) ?v_4))) (= x_112 (+ x_99 1))) (= x_164 (select x_9 x_114))) (= x_165 (select x_9 x_116))) (= x_166 (select x_9 x_118))) (or (or (or (and (and (and (and (and (and (and (= x_113 0) (= x_111 (+ x_98 1))) ?v_5) ?v_6) (= x_115 x_114)) (= x_164 1)) (= x_10 (store x_9 x_114 2))) (= x_108 (store x_95 x_98 x_114))) (and (and (and (and (and (and (and (and (and (= x_113 1) ?v_7) ?v_5) ?v_6) ?v_8) ?v_9) (= x_117 x_116)) (= x_165 2)) (= x_107 x_116)) (= x_10 (store x_9 x_116 3)))) (and (and (and (and (and (and (and (and (and (= x_113 2) ?v_7) (= x_109 (+ x_96 1))) ?v_6) ?v_8) ?v_9) (= x_119 x_118)) (= x_166 3)) (or (not (<= x_99 12)) (= x_107 x_118))) (= x_10 (store x_9 x_118 1)))) (and (and (and (and (and (= x_113 3) ?v_8) ?v_5) ?v_6) (= x_10 x_9)) ?v_9))) (= x_99 (+ x_86 1))) (= x_167 (select x_8 x_101))) (= x_168 (select x_8 x_103))) (= x_169 (select x_8 x_105))) (or (or (or (and (and (and (and (and (and (and (= x_100 0) (= x_98 (+ x_85 1))) ?v_10) ?v_11) (= x_102 x_101)) (= x_167 1)) (= x_9 (store x_8 x_101 2))) (= x_95 (store x_82 x_85 x_101))) (and (and (and (and (and (and (and (and (and (= x_100 1) ?v_12) ?v_10) ?v_11) ?v_13) ?v_14) (= x_104 x_103)) (= x_168 2)) (= x_94 x_103)) (= x_9 (store x_8 x_103 3)))) (and (and (and (and (and (and (and (and (and (= x_100 2) ?v_12) (= x_96 (+ x_83 1))) ?v_11) ?v_13) ?v_14) (= x_106 x_105)) (= x_169 3)) (or (not (<= x_86 12)) (= x_94 x_105))) (= x_9 (store x_8 x_105 1)))) (and (and (and (and (and (= x_100 3) ?v_13) ?v_10) ?v_11) (= x_9 x_8)) ?v_14))) (= x_86 (+ x_73 1))) (= x_170 (select x_7 x_88))) (= x_171 (select x_7 x_90))) (= x_172 (select x_7 x_92))) (or (or (or (and (and (and (and (and (and (and (= x_87 0) (= x_85 (+ x_72 1))) ?v_15) ?v_16) (= x_89 x_88)) (= x_170 1)) (= x_8 (store x_7 x_88 2))) (= x_82 (store x_69 x_72 x_88))) (and (and (and (and (and (and (and (and (and (= x_87 1) ?v_17) ?v_15) ?v_16) ?v_18) ?v_19) (= x_91 x_90)) (= x_171 2)) (= x_81 x_90)) (= x_8 (store x_7 x_90 3)))) (and (and (and (and (and (and (and (and (and (= x_87 2) ?v_17) (= x_83 (+ x_70 1))) ?v_16) ?v_18) ?v_19) (= x_93 x_92)) (= x_172 3)) (or (not (<= x_73 12)) (= x_81 x_92))) (= x_8 (store x_7 x_92 1)))) (and (and (and (and (and (= x_87 3) ?v_18) ?v_15) ?v_16) (= x_8 x_7)) ?v_19))) (= x_73 (+ x_60 1))) (= x_173 (select x_6 x_75))) (= x_174 (select x_6 x_77))) (= x_175 (select x_6 x_79))) (or (or (or (and (and (and (and (and (and (and (= x_74 0) (= x_72 (+ x_59 1))) ?v_20) ?v_21) (= x_76 x_75)) (= x_173 1)) (= x_7 (store x_6 x_75 2))) (= x_69 (store x_56 x_59 x_75))) (and (and (and (and (and (and (and (and (and (= x_74 1) ?v_22) ?v_20) ?v_21) ?v_23) ?v_24) (= x_78 x_77)) (= x_174 2)) (= x_68 x_77)) (= x_7 (store x_6 x_77 3)))) (and (and (and (and (and (and (and (and (and (= x_74 2) ?v_22) (= x_70 (+ x_57 1))) ?v_21) ?v_23) ?v_24) (= x_80 x_79)) (= x_175 3)) (or (not (<= x_60 12)) (= x_68 x_79))) (= x_7 (store x_6 x_79 1)))) (and (and (and (and (and (= x_74 3) ?v_23) ?v_20) ?v_21) (= x_7 x_6)) ?v_24))) (= x_60 (+ x_47 1))) (= x_176 (select x_5 x_62))) (= x_177 (select x_5 x_64))) (= x_178 (select x_5 x_66))) (or (or (or (and (and (and (and (and (and (and (= x_61 0) (= x_59 (+ x_46 1))) ?v_25) ?v_26) (= x_63 x_62)) (= x_176 1)) (= x_6 (store x_5 x_62 2))) (= x_56 (store x_43 x_46 x_62))) (and (and (and (and (and (and (and (and (and (= x_61 1) ?v_27) ?v_25) ?v_26) ?v_28) ?v_29) (= x_65 x_64)) (= x_177 2)) (= x_55 x_64)) (= x_6 (store x_5 x_64 3)))) (and (and (and (and (and (and (and (and (and (= x_61 2) ?v_27) (= x_57 (+ x_44 1))) ?v_26) ?v_28) ?v_29) (= x_67 x_66)) (= x_178 3)) (or (not (<= x_47 12)) (= x_55 x_66))) (= x_6 (store x_5 x_66 1)))) (and (and (and (and (and (= x_61 3) ?v_28) ?v_25) ?v_26) (= x_6 x_5)) ?v_29))) (= x_47 (+ x_34 1))) (= x_179 (select x_4 x_49))) (= x_180 (select x_4 x_51))) (= x_181 (select x_4 x_53))) (or (or (or (and (and (and (and (and (and (and (= x_48 0) (= x_46 (+ x_33 1))) ?v_30) ?v_31) (= x_50 x_49)) (= x_179 1)) (= x_5 (store x_4 x_49 2))) (= x_43 (store x_30 x_33 x_49))) (and (and (and (and (and (and (and (and (and (= x_48 1) ?v_32) ?v_30) ?v_31) ?v_33) ?v_34) (= x_52 x_51)) (= x_180 2)) (= x_42 x_51)) (= x_5 (store x_4 x_51 3)))) (and (and (and (and (and (and (and (and (and (= x_48 2) ?v_32) (= x_44 (+ x_31 1))) ?v_31) ?v_33) ?v_34) (= x_54 x_53)) (= x_181 3)) (or (not (<= x_34 12)) (= x_42 x_53))) (= x_5 (store x_4 x_53 1)))) (and (and (and (and (and (= x_48 3) ?v_33) ?v_30) ?v_31) (= x_5 x_4)) ?v_34))) (= x_34 (+ x_20 1))) (= x_182 (select x_3 x_36))) (= x_183 (select x_3 x_38))) (= x_184 (select x_3 x_40))) (or (or (or (and (and (and (and (and (and (and (= x_35 0) (= x_33 (+ x_18 1))) ?v_35) ?v_36) (= x_37 x_36)) (= x_182 1)) (= x_4 (store x_3 x_36 2))) (= x_30 (store x_14 x_18 x_36))) (and (and (and (and (and (and (and (and (and (= x_35 1) ?v_37) ?v_35) ?v_36) ?v_38) ?v_39) (= x_39 x_38)) (= x_183 2)) (= x_29 x_38)) (= x_4 (store x_3 x_38 3)))) (and (and (and (and (and (and (and (and (and (= x_35 2) ?v_37) (= x_31 (+ x_15 1))) ?v_36) ?v_38) ?v_39) (= x_41 x_40)) (= x_184 3)) (or (not (<= x_20 12)) (= x_29 x_40))) (= x_4 (store x_3 x_40 1)))) (and (and (and (and (and (= x_35 3) ?v_38) ?v_35) ?v_36) (= x_4 x_3)) ?v_39))) (= x_20 (+ x_21 1))) (= x_185 (select x_0 x_23))) (= x_186 (select x_0 x_25))) (= x_187 (select x_0 x_27))) (or (or (or (and (and (and (and (and (and (and (= x_22 0) (= x_18 (+ x_19 1))) ?v_40) ?v_41) (= x_24 x_23)) (= x_185 1)) (= x_3 (store x_0 x_23 2))) (= x_14 (store x_11 x_19 x_23))) (and (and (and (and (and (and (and (and (and (= x_22 1) ?v_42) ?v_40) ?v_41) ?v_43) ?v_44) (= x_26 x_25)) (= x_186 2)) (= x_13 x_25)) (= x_3 (store x_0 x_25 3)))) (and (and (and (and (and (and (and (and (and (= x_22 2) ?v_42) (= x_15 (+ x_12 1))) ?v_41) ?v_43) ?v_44) (= x_28 x_27)) (= x_187 3)) (or (not (<= x_21 12)) (= x_13 x_27))) (= x_3 (store x_0 x_27 1)))) (and (and (and (and (and (= x_22 3) ?v_43) ?v_40) ?v_41) (= x_3 x_0)) ?v_44))) (= x_188 (select x_129 x_1))) (= x_188 3)) (= x_189 (select x_129 x_2))) (= x_189 3))))
; --- Injected Array Sum Constraint ---
(assert (sum x_121 (+ x_105 (+ x_165 x_49))))
(assert (sum x_6 (+ x_59 (+ x_42 x_164))))
(assert (sum x_11 (+ x_94 (+ x_24 x_49))))
(check-sat)
(exit)